&CONTROL
    calculation = "scf"
    max_seconds =  8.64000e+04
    pseudo_dir  = "C:\Users\user\.burai\.pseudopot"
    tprnfor     = .TRUE.
    tstress     = .TRUE.
/

&SYSTEM
    a           =  1.28224e+01
    degauss     =  1.00000e-02
    ecutrho     =  4.23668e+02
    ecutwfc     =  4.70743e+01
    ibrav       = 1
    nat         = 40
    nbnd        = 256
    ntyp        = 3
    occupations = "smearing"
    smearing    = "gaussian"
/

&ELECTRONS
    conv_thr         =  1.00000e-06
    electron_maxstep = 200
    mixing_beta      =  7.00000e-01
    startingpot      = "atomic"
    startingwfc      = "atomic+random"
/

K_POINTS {automatic}
 4  4  4  0 0 0

ATOMIC_SPECIES
Cs    132.90545  Cs.pbe-mt_bw.UPF
I     126.90447  I.pbe-mt_bw.UPF
Sn    118.71000  Sn.pbe-dn-rrkjus_psl.1.0.0.UPF

ATOMIC_POSITIONS {bohr}
Cs      0.000000   0.000000   0.000000
Sn      6.057721   6.057721   6.057721
I       6.057705   6.057705   0.000000
I       6.057705   0.000000   6.057705
I       0.000000   6.057705   6.057705
Cs      0.000000   0.000000  12.115416
Sn      6.057721   6.057721  18.173109
I       6.057704   6.057704  12.115416
I       6.057705   0.000000  18.173125
I       0.000000   6.057705  18.173125
Cs      0.000000  12.115416   0.000000
Sn      6.057721  18.173109   6.057721
I       6.057705  18.173125   0.000000
I       6.057704  12.115416   6.057704
I       0.000000  18.173125   6.057705
Cs      0.000000  12.115416  12.115416
Sn      6.057721  18.173109  18.173109
I       6.057704  12.115416  18.173126
I       6.057704  18.173126  12.115416
I       0.000000  18.173125  18.173125
Cs     12.115416   0.000000   0.000000
Sn     18.173109   6.057721   6.057721
I      18.173125   6.057705   0.000000
I      18.173125   0.000000   6.057705
I      12.115416   6.057704   6.057704
Cs     12.115416   0.000000  12.115416
Sn     18.173109   6.057721  18.173109
I      18.173126   6.057704  12.115416
I      18.173125   0.000000  18.173125
I      12.115416   6.057704  18.173126
Cs     12.115416  12.115416   0.000000
Sn     18.173109  18.173109   6.057721
I      18.173125  18.173125   0.000000
I      18.173126  12.115416   6.057704
I      12.115416  18.173126   6.057704
Cs     12.115416  12.115416  12.115416
Sn     18.173109  18.173109  18.173109
I      18.173126  18.173126  12.115416
I      18.173126  12.115416  18.173126
I      12.115416  18.173126  18.173126


