&CONTROL
    calculation = "scf"
    max_seconds =  8.64000e+04
    pseudo_dir  = "C:\Users\user\.burai\.pseudopot"
    tprnfor     = .TRUE.
    tstress     = .TRUE.
/

&SYSTEM
    a           =  1.26909e+01
    degauss     =  1.00000e-02
    ecutrho     =  4.23669e+02
    ecutwfc     =  4.70743e+01
    ibrav       = 1
    nat         = 40
    nbnd        = 256
    nosym       = .FALSE.
    ntyp        = 4
    occupations = "smearing"
    smearing    = "gaussian"
/

&ELECTRONS
    conv_thr         =  1.00000e-06
    electron_maxstep = 200
    mixing_beta      =  7.00000e-01
    startingpot      = "atomic"
    startingwfc      = "atomic+random"
/

K_POINTS {automatic}
 4  4  4  0 0 0

ATOMIC_SPECIES
Cs    132.90545  Cs.pbe-mt_bw.UPF
I     126.90447  I.pbe-mt_bw.UPF
Sn    118.71000  Sn.pbe-dn-rrkjus_psl.1.0.0.UPF
Ge     72.61000  Ge.pbe-n-rrkjus_psl.1.0.0.UPF

ATOMIC_POSITIONS {bohr}
Cs      0.000000   0.000000   0.000000
Sn      5.995709   5.995602   5.995602
I       5.995584   5.995584   0.000000
I       5.995584   0.000000   5.995584
I      23.805612   5.995591   5.995591
Cs     23.982367  -0.000000  11.991183
Sn      5.995601   5.995709  17.986765
I       5.995585   5.995586  11.991184
I       5.995590  23.805613  17.986776
I      -0.000001   5.995585  17.986782
Cs     23.982367  11.991183  -0.000000
Sn      5.995601  17.986765   5.995709
I       5.995590  17.986776  23.805613
I       5.995585  11.991184   5.995586
I      -0.000001  17.986782   5.995585
Cs     -0.000001  11.991184  11.991184
Ge      5.995525  17.986841  17.986841
I       5.995590  12.167845  17.986776
I       5.995590  17.986776  12.167845
I       0.176754  17.986776  17.986776
Cs     11.991183  23.982368  23.982368
Ge     17.986840   5.995526   5.995526
I      17.986775   5.995591   0.176754
I      17.986775   0.176754   5.995591
I      12.167844   5.995591   5.995591
Cs     11.991183   0.000000  11.991183
Sn     17.986764   5.995602  17.986657
I      17.986775   5.995591  11.814523
I      17.986782   0.000000  17.986782
I      11.991183   5.995586  17.986780
Cs     11.991183  11.991183   0.000000
Sn     17.986764  17.986657   5.995602
I      17.986782  17.986782   0.000000
I      17.986775  11.814523   5.995591
I      11.991183  17.986780   5.995586
Cs     11.991183  11.991184  11.991184
Sn     17.986657  17.986765  17.986765
I      17.986780  17.986780  11.991184
I      17.986780  11.991184  17.986780
I      11.814522  17.986776  17.986776


