&CONTROL
    calculation = "scf"
    max_seconds =  8.64000e+04
    pseudo_dir  = "C:\Users\user\.burai\.pseudopot"
/

&SYSTEM
    a           =  1.24674e+01
    degauss     =  1.00000e-02
    ecutrho     =  4.23668e+02
    ecutwfc     =  4.70743e+01
    ibrav       = 1
    nat         = 40
    nbnd        = 256
    ntyp        = 4
    occupations = "smearing"
    smearing    = "gaussian"
/

&ELECTRONS
    conv_thr         =  1.00000e-06
    electron_maxstep = 200
    mixing_beta      =  7.00000e-01
    startingpot      = "atomic"
    startingwfc      = "atomic+random"
/

K_POINTS {automatic}
 4  4  4  0 0 0

ATOMIC_SPECIES
Cs    132.90545  Cs.pbe-mt_bw.UPF
I     126.90447  I.pbe-mt_bw.UPF
Sn    118.71000  Sn.pbe-dn-rrkjus_psl.1.0.0.UPF
Ge     72.61000  Ge.pbe-n-rrkjus_psl.1.0.0.UPF

ATOMIC_POSITIONS {bohr}
Cs      0.022127   0.022127  23.537768
Ge      5.889973   5.889973   5.889973
I       5.889973   5.889973  23.526516
I       5.889973   0.165986   5.889973
I       0.165986   5.889973   5.889973
Cs      0.022127   0.022127  11.802074
Ge      5.889973   5.889973  17.669921
I       5.889973   5.889973  11.813327
I       5.889973   0.033379  17.669921
I       0.033379   5.889973  17.669921
Cs      0.022127  11.757821  23.537768
Sn      5.889973  17.669921   5.889973
I       5.889973  17.669921  23.393908
I       5.889973  11.613961   5.889973
I      23.415485  17.669921   5.889973
Cs      0.022127  11.757821  11.802074
Ge      5.889973  17.669921  17.669921
I       5.889973  11.746568  17.669921
I       5.889973  17.669921  11.945934
I       0.165986  17.669921  17.669921
Cs     11.757821   0.022127  23.537768
Sn     17.669921   5.889973   5.889973
I      17.669921   5.889973  23.393908
I      17.669921  23.415485   5.889973
I      11.613961   5.889973   5.889973
Cs     11.757821   0.022127  11.802074
Ge     17.669921   5.889973  17.669921
I      17.669921   5.889973  11.945934
I      17.669921   0.165986  17.669921
I      11.746568   5.889973  17.669921
Cs     11.757821  11.757821  23.537768
Ge     17.669921  17.669921   5.889973
I      17.669921  17.669921   0.144410
I      17.669921  11.924358   5.889973
I      11.924358  17.669921   5.889973
Cs     11.757821  11.757821  11.802074
Sn     17.669921  17.669921  17.669921
I      17.669921  17.669921  11.635537
I      17.669921  11.613961  17.669921
I      11.613961  17.669921  17.669921


