&CONTROL
    calculation = "scf"
    max_seconds =  8.64000e+04
    pseudo_dir  = "C:\Users\user\.burai\.pseudopot"
/

&SYSTEM
    a           =  1.23922e+01
    degauss     =  1.00000e-02
    ecutrho     =  4.23668e+02
    ecutwfc     =  4.70743e+01
    ibrav       = 1
    nat         = 40
    ntyp        = 4
    occupations = "smearing"
    smearing    = "gaussian"
/

&ELECTRONS
    conv_thr         =  1.00000e-06
    electron_maxstep = 200
    mixing_beta      =  7.00000e-01
    startingpot      = "atomic"
    startingwfc      = "atomic+random"
/

K_POINTS {automatic}
 4  4  4  0 0 0

ATOMIC_SPECIES
Cs    132.90545  Cs.pbe-mt_bw.UPF
I     126.90447  I.pbe-mt_bw.UPF
Sn    118.71000  Sn.pbe-dn-rrkjus_psl.1.0.0.UPF
Ge     72.61000  Ge.pbe-n-rrkjus_psl.1.0.0.UPF

ATOMIC_POSITIONS {bohr}
Cs      0.000000   0.000000   0.000000
Ge      5.854201   5.854477   5.854477
I       5.854447   5.854447   0.000000
I       5.854447   0.000000   5.854447
I       0.173545   5.854426   5.854426
Cs      0.000003  23.417797  11.708897
Ge      5.854479   5.854199  17.563320
I       5.854452   5.854450  11.708899
I       5.854428   0.173543  17.563371
I      23.417800   5.854447  17.563352
Cs      0.000003  11.708897  23.417797
Ge      5.854479  17.563320   5.854199
I       5.854428  17.563371   0.173543
I       5.854452  11.708899   5.854450
I      23.417800  17.563352   5.854447
Cs     23.417800  11.708900  11.708900
Sn      5.854787  17.563012  17.563012
I       5.854427  11.535729  17.563372
I       5.854427  17.563372  11.535729
I      23.244257  17.563371  17.563371
Cs     11.708899   0.000001   0.000001
Sn     17.563014   5.854785   5.854785
I      17.563373   5.854426  23.244255
I      17.563373  23.244255   5.854426
I      11.535731   5.854425   5.854425
Cs     11.708900   0.000000  11.708900
Ge     17.563322   5.854477  17.563598
I      17.563374   5.854425  11.882069
I      17.563352   0.000000  17.563352
I      11.708901   5.854450  17.563347
Cs     11.708900  11.708900   0.000000
Ge     17.563322  17.563598   5.854477
I      17.563352  17.563352   0.000000
I      17.563374  11.882069   5.854425
I      11.708901  17.563347   5.854450
Cs     11.708901  11.708899  11.708899
Ge     17.563600  17.563320  17.563320
I      17.563349  17.563347  11.708899
I      17.563349  11.708899  17.563347
I      11.882071  17.563372  17.563372


